g3 1 1 0	# problem md3m
 2 0 14 0 0 	# vars, constraints, objectives, ranges, eqns
 0 13 0 0 0 0	# nonlinear constrs, objs; ccons: lin, nonlin, nd, nzlb
 0 0	# network constraints: nonlinear, linear
 0 2 0 	# nonlinear vars in constraints, objectives, both
 0 0 0 1	# linear network variables; functions; arith, flags
 0 0 0 0 0 	# discrete variables: binary, integer, nonlinear (b,c,o)
 0 20 	# nonzeros in Jacobian, obj. gradient
 0 0	# max name lengths: constraints, variables
 0 0 0 0 0	# common exprs: b,c,o,c1,o1
O0 0
o0
o54
5
o43
v0
o2
n3.0
o43
v1
o2
n81.2386
o43
o0
o16
o44
o2
n-0.9713375796178344
v1
n1
o2
n61.191
o43
o0
o16
o44
o2
n-3.9808917197452227
v1
n1
o2
n51.1798
o43
o0
o16
o44
o2
n-11.94267515923567
v1
n1
n68.11672041661723
O1 0
o5
v0
n-1.0
O2 0
o16
o5
v0
n-2.0
O3 0
o0
o54
4
o2
n3.0
o5
v1
n-1.0
o2
o2
n611.2237261146497
o5
o0
o16
o44
o2
n-11.94267515923567
v1
n1.0
n-1.0
o44
o2
n-11.94267515923567
v1
o2
o2
n78.91010509554141
o5
o0
o16
o44
o2
n-0.9713375796178344
v1
n1.0
n-1.0
o44
o2
n-0.9713375796178344
v1
o2
o2
n243.59474522292993
o5
o0
o16
o44
o2
n-3.9808917197452227
v1
n1.0
n-1.0
o44
o2
n-3.9808917197452227
v1
n-29.80919654255515
O4 0
o54
7
o2
n-3.0
o5
v1
n-2.0
o2
o2
n-76.64835049089214
o5
o0
o16
o44
o2
n-0.9713375796178344
v1
n1.0
n-1.0
o44
o2
n-0.9713375796178344
v1
o2
o2
n-76.64835049089214
o5
o0
o16
o44
o2
n-0.9713375796178344
v1
n1.0
n-2.0
o44
o2
n-1.9426751592356688
v1
o2
o2
n-969.724304231409
o5
o0
o16
o44
o2
n-3.9808917197452227
v1
n1.0
n-1.0
o44
o2
n-3.9808917197452227
v1
o2
o2
n-969.724304231409
o5
o0
o16
o44
o2
n-3.9808917197452227
v1
n1.0
n-2.0
o44
o2
n-7.961783439490445
v1
o2
o2
n-7299.646410604893
o5
o0
o16
o44
o2
n-11.94267515923567
v1
n1.0
n-1.0
o44
o2
n-11.94267515923567
v1
o2
o2
n-7299.646410604893
o5
o0
o16
o44
o2
n-11.94267515923567
v1
n1.0
n-2.0
o44
o2
n-23.88535031847134
v1
O5 0
o54
15
o2
o2
n0.040674325
o5
v0
n4
v1
o2
o2
n4.4936509
v0
o5
v1
n0.37
o2
o2
n-6.0327468
v0
o5
v1
n0.718
o2
o2
n-1.0842396
o5
v0
n2
o5
v1
n0.79
o2
o2
n0.65985153
o5
v0
n3
o5
v1
n0.59
o2
o2
o2
n-2.3011802
v0
o5
v1
n2.38
o44
o16
o5
v0
n2
o2
o2
o2
n-1.5022099
o5
v0
n3
o5
v1
n3.14
o44
o16
o5
v0
n2
o2
o2
o2
n0.5051725
o5
v0
n2
o5
v1
n0.62
o44
o2
n-1.0
v0
o2
o2
o2
n-2.2363839
o5
v0
n2
o5
v1
n2.08
o44
o16
o5
v0
n2
o2
o2
o2
n-0.071582853
o5
v0
n7
o5
v1
n1.042
o44
o2
n-1.0
v0
o2
o2
o2
n4.7053488
v0
o5
v1
n0.9
o44
o0
o2
n-1.043
o5
o0
v0
n-0.725
n2
o2
n-0.86
o5
o0
v1
n-1.357
n2
o2
o2
o2
n-0.774783117
v0
o5
v1
n0.86
o44
o0
o2
n-20.0
o5
o0
v0
n-0.94
n2
o2
n-1099.0
o5
o0
v1
n-1.097
n2
o2
o2
o2
n-0.68302991
o5
v0
n3
o5
v1
n2.06
o44
o0
o2
n-1.08
o5
o0
v0
n-0.546
n2
o2
n-0.95
o5
o0
v1
n-1.03
n2
o2
o2
o2
n0.41657104
o5
v0
n2
o5
v1
n0.55
o44
o0
o2
n-0.47
o5
o0
v0
n-0.68
n2
o2
n-0.1
o5
o0
v1
n-1.02
n2
o2
o2
o2
n-1.1441135
o5
v0
n2
o5
v1
n0.69
o44
o0
o2
n-1.085
o5
o0
v0
n-0.495
n2
o2
n-1.85
o5
o0
v1
n-0.8
n2
O6 0
o54
25
o2
n4.4936509
o5
v1
n0.37
o2
n-6.0327468
o5
v1
n0.718
o2
o2
n0.1626973
v1
o5
v0
n3.0
o2
o2
n1.9795545899999998
o5
v0
n2.0
o5
v1
n0.59
o2
o2
n4.7053488
o5
v1
n0.9
o44
o0
o2
n-1.043
o5
o0
v0
n-0.725
n2.0
o2
n-0.86
o5
o0
v1
n-1.357
n2.0
o2
o2
n-2.1684792
v0
o5
v1
n0.79
o2
o2
n-2.3011802
o5
v1
n2.38
o44
o16
o5
v0
n2.0
o2
o2
n-0.774783117
o5
v1
n0.86
o44
o0
o2
n-20.0
o5
o0
v0
n-0.94
n2.0
o2
n-1099.0
o5
o0
v1
n-1.097
n2.0
o2
o2
o2
n4.4727678
o5
v0
n3.0
o5
v1
n2.08
o44
o16
o5
v0
n2.0
o2
o2
o2
n0.071582853
o5
v0
n7.0
o5
v1
n1.042
o44
o2
n-1.0
v0
o2
o2
o2
n0.83314208
v0
o5
v1
n0.55
o44
o0
o2
n-0.47
o5
o0
v0
n-0.68
n2.0
o2
n-0.1
o5
o0
v1
n-1.02
n2.0
o2
o2
o2
n1.010345
v0
o5
v1
n0.62
o44
o2
n-1.0
v0
o2
o2
o2
n4.6023604
o5
v0
n2.0
o5
v1
n2.38
o44
o16
o5
v0
n2.0
o2
o2
o2
n3.0044198
o5
v0
n4.0
o5
v1
n3.14
o44
o16
o5
v0
n2.0
o2
o2
o2
n-4.4727678
v0
o5
v1
n2.08
o44
o16
o5
v0
n2.0
o2
o2
o2
n-0.5051725
o5
v0
n2.0
o5
v1
n0.62
o44
o2
n-1.0
v0
o2
o2
o2
n-0.501079971
o5
v0
n6.0
o5
v1
n1.042
o44
o2
n-1.0
v0
o2
o2
o2
n-4.5066296999999995
o5
v0
n2.0
o5
v1
n3.14
o44
o16
o5
v0
n2.0
o2
o2
o2
n-2.288227
v0
o5
v1
n0.69
o44
o0
o2
n-1.085
o5
o0
v0
n-0.495
n2.0
o2
n-1.85
o5
o0
v1
n-0.8
n2.0
o2
o2
o2
n-2.04908973
o5
v0
n2.0
o5
v1
n2.06
o44
o0
o2
n-1.08
o5
o0
v0
n-0.546
n2.0
o2
n-0.95
o5
o0
v1
n-1.03
n2.0
o2
o2
o2
o2
n0.41657104
o5
v0
n2.0
o5
v1
n0.55
o0
o2
n-0.94
v0
n0.6392
o44
o0
o2
n-0.47
o5
o0
v0
n-0.68
n2.0
o2
n-0.1
o5
o0
v1
n-1.02
n2.0
o2
o2
o2
o2
n4.7053488
v0
o5
v1
n0.9
o0
o2
n-2.086
v0
n1.5123499999999999
o44
o0
o2
n-1.043
o5
o0
v0
n-0.725
n2.0
o2
n-0.86
o5
o0
v1
n-1.357
n2.0
o2
o2
o2
o2
n-1.1441135
o5
v0
n2.0
o5
v1
n0.69
o0
o2
n-2.17
v0
n1.07415
o44
o0
o2
n-1.085
o5
o0
v0
n-0.495
n2.0
o2
n-1.85
o5
o0
v1
n-0.8
n2.0
o2
o2
o2
o2
n-0.68302991
o5
v0
n3.0
o5
v1
n2.06
o0
o2
n-2.16
v0
n1.1793600000000002
o44
o0
o2
n-1.08
o5
o0
v0
n-0.546
n2.0
o2
n-0.95
o5
o0
v1
n-1.03
n2.0
o2
o2
o2
o2
n-0.774783117
v0
o5
v1
n0.86
o0
o2
n-40.0
v0
n37.599999999999994
o44
o0
o2
n-20.0
o5
o0
v0
n-0.94
n2.0
o2
n-1099.0
o5
o0
v1
n-1.097
n2.0
O7 0
o54
41
o2
n-2.1684792
o5
v1
n0.79
o2
o2
n0.83314208
o5
v1
n0.55
o44
o0
o2
n-0.47
o5
o0
v0
n-0.68
n2.0
o2
n-0.1
o5
o0
v1
n-1.02
n2.0
o2
o2
n1.010345
o5
v1
n0.62
o44
o2
n-1.0
v0
o2
o2
n3.9591091799999996
o5
v1
n0.59
v0
o2
o2
n0.48809189999999997
v1
o5
v0
n2.0
o2
o2
n-4.4727678
o5
v1
n2.08
o44
o16
o5
v0
n2.0
o2
o2
n-2.288227
o5
v1
n0.69
o44
o0
o2
n-1.085
o5
o0
v0
n-0.495
n2.0
o2
n-1.85
o5
o0
v1
n-0.8
n2.0
o2
o2
o2
n1.4753446056000001
o5
v1
n2.06
o5
v0
n3.0
o44
o0
o2
n-1.08
o5
o0
v0
n-0.546
n2.0
o2
n-0.95
o5
o0
v1
n-1.03
n2.0
o2
o2
o2
n0.5051725
o5
v1
n0.62
o5
v0
n2.0
o44
o2
n-1.0
v0
o2
o2
o2
n21.0309386
o5
v1
n3.14
o5
v0
n3.0
o44
o16
o5
v0
n2.0
o2
o2
o2
n22.363839
o5
v1
n2.08
o5
v0
n2.0
o44
o16
o5
v0
n2.0
o2
o2
o2
n1.002159942
o5
v1
n1.042
o5
v0
n6.0
o44
o2
n-1.0
v0
o2
o2
o2
n2.482726295
o5
v1
n0.69
o5
v0
n2.0
o44
o0
o2
n-1.085
o5
o0
v0
n-0.495
n2.0
o2
n-1.85
o5
o0
v1
n-0.8
n2.0
o2
o2
o2
n4.7053488
o5
v1
n0.9
o0
o2
n-2.086
v0
n1.5123499999999999
o44
o0
o2
n-1.043
o5
o0
v0
n-0.725
n2.0
o2
n-0.86
o5
o0
v1
n-1.357
n2.0
o2
o2
o2
n13.8070812
o5
v1
n2.38
v0
o44
o16
o5
v0
n2.0
o2
o2
o2
n30.99132468
v0
o5
v1
n0.86
o44
o0
o2
n-20.0
o5
o0
v0
n-0.94
n2.0
o2
n-1099.0
o5
o0
v1
n-1.097
n2.0
o2
o2
o2
n30.99132468
o5
v1
n0.86
o0
v0
n-0.94
o44
o0
o2
n-20.0
o5
o0
v0
n-0.94
n2.0
o2
n-1099.0
o5
o0
v1
n-1.097
n2.0
o2
o2
o2
n-8.9455356
o5
v1
n2.08
o5
v0
n4.0
o44
o16
o5
v0
n2.0
o2
o2
o2
n-0.071582853
o5
v1
n1.042
o5
v0
n7.0
o44
o2
n-1.0
v0
o2
o2
o2
n-1.010345
v0
o5
v1
n0.62
o44
o2
n-1.0
v0
o2
o2
o2
n-1.010345
o5
v1
n0.62
v0
o44
o2
n-1.0
v0
o2
o2
o2
n-9.013259399999999
o5
v1
n3.14
v0
o44
o16
o5
v0
n2.0
o2
o2
o2
n-9.2047208
o5
v1
n2.38
o5
v0
n3.0
o44
o16
o5
v0
n2.0
o2
o2
o2
n-6.0088396
o5
v1
n3.14
o5
v0
n5.0
o44
o16
o5
v0
n2.0
o2
o2
o2
n-0.3915767776
o5
v1
n0.55
o5
v0
n2.0
o44
o0
o2
n-0.47
o5
o0
v0
n-0.68
n2.0
o2
n-0.1
o5
o0
v1
n-1.02
n2.0
o2
o2
o2
n-4.09817946
o5
v1
n2.06
v0
o44
o0
o2
n-1.08
o5
o0
v0
n-0.546
n2.0
o2
n-0.95
o5
o0
v1
n-1.03
n2.0
o2
o2
o2
n-9.8153575968
v0
o5
v1
n0.9
o44
o0
o2
n-1.043
o5
o0
v0
n-0.725
n2.0
o2
n-0.86
o5
o0
v1
n-1.357
n2.0
o2
o2
o2
n-9.8153575968
o5
v1
n0.9
o0
v0
n-0.725
o44
o0
o2
n-1.043
o5
o0
v0
n-0.725
n2.0
o2
n-0.86
o5
o0
v1
n-1.357
n2.0
o2
o2
o2
n-3.006479826
o5
v1
n1.042
o5
v0
n5.0
o44
o2
n-1.0
v0
o2
o2
o2
n-0.774783117
o5
v1
n0.86
o0
o2
n-40.0
v0
n37.599999999999994
o44
o0
o2
n-20.0
o5
o0
v0
n-0.94
n2.0
o2
n-1099.0
o5
o0
v1
n-1.097
n2.0
o2
o2
o2
o2
n4.4260338168
o5
v1
n2.06
o5
v0
n2.0
o0
v0
n-0.546
o44
o0
o2
n-1.08
o5
o0
v0
n-0.546
n2.0
o2
n-0.95
o5
o0
v1
n-1.03
n2.0
o2
o2
o2
o2
n0.83314208
o5
v1
n0.55
v0
o0
o2
n-0.94
v0
n0.6392
o44
o0
o2
n-0.47
o5
o0
v0
n-0.68
n2.0
o2
n-0.1
o5
o0
v1
n-1.02
n2.0
o2
o2
o2
o2
n4.96545259
v0
o5
v1
n0.69
o0
v0
n-0.495
o44
o0
o2
n-1.085
o5
o0
v0
n-0.495
n2.0
o2
n-1.85
o5
o0
v1
n-0.8
n2.0
o2
o2
o2
o2
n-2.288227
o5
v1
n0.69
v0
o0
o2
n-2.17
v0
n1.07415
o44
o0
o2
n-1.085
o5
o0
v0
n-0.495
n2.0
o2
n-1.85
o5
o0
v1
n-0.8
n2.0
o2
o2
o2
o2
n-0.7831535552
v0
o5
v1
n0.55
o0
v0
n-0.68
o44
o0
o2
n-0.47
o5
o0
v0
n-0.68
n2.0
o2
n-0.1
o5
o0
v1
n-1.02
n2.0
o2
o2
o2
o2
n-2.04908973
o5
v1
n2.06
o5
v0
n2.0
o0
o2
n-2.16
v0
n1.1793600000000002
o44
o0
o2
n-1.08
o5
o0
v0
n-0.546
n2.0
o2
n-0.95
o5
o0
v1
n-1.03
n2.0
o2
o2
o2
o2
o2
n1.4753446056000001
o5
v1
n2.06
o5
v0
n3.0
o0
v0
n-0.546
o0
o2
n-2.16
v0
n1.1793600000000002
o44
o0
o2
n-1.08
o5
o0
v0
n-0.546
n2.0
o2
n-0.95
o5
o0
v1
n-1.03
n2.0
o2
o2
o2
o2
o2
n2.482726295
o5
v1
n0.69
o5
v0
n2.0
o0
v0
n-0.495
o0
o2
n-2.17
v0
n1.07415
o44
o0
o2
n-1.085
o5
o0
v0
n-0.495
n2.0
o2
n-1.85
o5
o0
v1
n-0.8
n2.0
o2
o2
o2
o2
o2
n30.99132468
v0
o5
v1
n0.86
o0
v0
n-0.94
o0
o2
n-40.0
v0
n37.599999999999994
o44
o0
o2
n-20.0
o5
o0
v0
n-0.94
n2.0
o2
n-1099.0
o5
o0
v1
n-1.097
n2.0
o2
o2
o2
o2
o2
n-0.3915767776
o5
v1
n0.55
o5
v0
n2.0
o0
v0
n-0.68
o0
o2
n-0.94
v0
n0.6392
o44
o0
o2
n-0.47
o5
o0
v0
n-0.68
n2.0
o2
n-0.1
o5
o0
v1
n-1.02
n2.0
o2
o2
o2
o2
o2
n-9.8153575968
v0
o5
v1
n0.9
o0
v0
n-0.725
o0
o2
n-2.086
v0
n1.5123499999999999
o44
o0
o2
n-1.043
o5
o0
v0
n-0.725
n2.0
o2
n-0.86
o5
o0
v1
n-1.357
n2.0
O8 0
o54
20
o2
n0.040674325
o5
v0
n4.0
o2
o2
n1.6626508329999998
v0
o5
v1
n-0.63
o2
o2
n0.38931240269999995
o5
v0
n3.0
o5
v1
n-0.41000000000000003
o2
o2
n-4.3315122024
v0
o5
v1
n-0.28200000000000003
o2
o2
n-0.8565492840000001
o5
v0
n2.0
o5
v1
n-0.20999999999999996
o2
o2
o2
n4.234813920000001
v0
o5
v1
n-0.09999999999999998
o44
o0
o2
n-1.043
o5
o0
v0
n-0.725
n2.0
o2
n-0.86
o5
o0
v1
n-1.357
n2.0
o2
o2
o2
n0.31320695000000004
o5
v0
n2.0
o5
v1
n-0.38
o44
o2
n-1.0
v0
o2
o2
o2
n0.22911407200000003
o5
v0
n2.0
o5
v1
n-0.44999999999999996
o44
o0
o2
n-0.47
o5
o0
v0
n-0.68
n2.0
o2
n-0.1
o5
o0
v1
n-1.02
n2.0
o2
o2
o2
n-0.789438315
o5
v0
n2.0
o5
v1
n-0.31000000000000005
o44
o0
o2
n-1.085
o5
o0
v0
n-0.495
n2.0
o2
n-1.85
o5
o0
v1
n-0.8
n2.0
o2
o2
o2
n-0.074589332826
o5
v0
n7.0
o5
v1
n0.04200000000000004
o44
o2
n-1.0
v0
o2
o2
o2
n-5.476808876
v0
o5
v1
n1.38
o44
o16
o5
v0
n2.0
o2
o2
o2
n-4.651678512
o5
v0
n2.0
o5
v1
n1.08
o44
o16
o5
v0
n2.0
o2
o2
o2
n-4.716939086
o5
v0
n3.0
o5
v1
n2.14
o44
o16
o5
v0
n2.0
o2
o2
o2
n-0.66631348062
v0
o5
v1
n-0.14
o44
o0
o2
n-20.0
o5
o0
v0
n-0.94
n2.0
o2
n-1099.0
o5
o0
v1
n-1.097
n2.0
o2
o2
o2
n-1.4070416146
o5
v0
n3.0
o5
v1
n1.06
o44
o0
o2
n-1.08
o5
o0
v0
n-0.546
n2.0
o2
n-0.95
o5
o0
v1
n-1.03
n2.0
o2
o2
o2
o2
n0.41657104
o5
v0
n2.0
o5
v1
n0.55
o0
o2
n-0.2
v1
n0.20400000000000001
o44
o0
o2
n-0.47
o5
o0
v0
n-0.68
n2.0
o2
n-0.1
o5
o0
v1
n-1.02
n2.0
o2
o2
o2
o2
n4.7053488
v0
o5
v1
n0.9
o0
o2
n-1.72
v1
n2.33404
o44
o0
o2
n-1.043
o5
o0
v0
n-0.725
n2.0
o2
n-0.86
o5
o0
v1
n-1.357
n2.0
o2
o2
o2
o2
n-1.1441135
o5
v0
n2.0
o5
v1
n0.69
o0
o2
n-3.7
v1
n2.9600000000000004
o44
o0
o2
n-1.085
o5
o0
v0
n-0.495
n2.0
o2
n-1.85
o5
o0
v1
n-0.8
n2.0
o2
o2
o2
o2
n-0.68302991
o5
v0
n3.0
o5
v1
n2.06
o0
o2
n-1.9
v1
n1.9569999999999999
o44
o0
o2
n-1.08
o5
o0
v0
n-0.546
n2.0
o2
n-0.95
o5
o0
v1
n-1.03
n2.0
o2
o2
o2
o2
n-0.774783117
v0
o5
v1
n0.86
o0
o2
n-2198.0
v1
n2411.206
o44
o0
o2
n-20.0
o5
o0
v0
n-0.94
n2.0
o2
n-1099.0
o5
o0
v1
n-1.097
n2.0
O9 0
o54
34
o2
o2
n1.2214864410768
v0
o5
v1
n-1.282
o2
o2
n0.17987534964
o5
v0
n2.0
o5
v1
n-1.21
o2
o2
n-1.04747002479
v0
o5
v1
n-1.63
o2
o2
n-0.15961808510699999
o5
v0
n3.0
o5
v1
n-1.4100000000000001
o2
o2
o2
n1.297756829
o5
v0
n3.0
o5
v1
n2.06
o44
o0
o2
n-1.08
o5
o0
v0
n-0.546
n2.0
o2
n-0.95
o5
o0
v1
n-1.03
n2.0
o2
o2
o2
n4.2332199500000005
o5
v0
n2.0
o5
v1
n0.69
o44
o0
o2
n-1.085
o5
o0
v0
n-0.495
n2.0
o2
n-1.85
o5
o0
v1
n-0.8
n2.0
o2
o2
o2
n0.24472587765000003
o5
v0
n2.0
o5
v1
n-1.31
o44
o0
o2
n-1.085
o5
o0
v0
n-0.495
n2.0
o2
n-1.85
o5
o0
v1
n-0.8
n2.0
o2
o2
o2
n0.0932838872868
v0
o5
v1
n-1.1400000000000001
o44
o0
o2
n-20.0
o5
o0
v0
n-0.94
n2.0
o2
n-1099.0
o5
o0
v1
n-1.097
n2.0
o2
o2
o2
n1702.973291166
v0
o5
v1
n0.86
o44
o0
o2
n-20.0
o5
o0
v0
n-0.94
n2.0
o2
n-1099.0
o5
o0
v1
n-1.097
n2.0
o2
o2
o2
n-0.083314208
o5
v0
n2.0
o5
v1
n0.55
o44
o0
o2
n-0.47
o5
o0
v0
n-0.68
n2.0
o2
n-0.1
o5
o0
v1
n-1.02
n2.0
o2
o2
o2
n-8.093199936000001
v0
o5
v1
n0.9
o44
o0
o2
n-1.043
o5
o0
v0
n-0.725
n2.0
o2
n-0.86
o5
o0
v1
n-1.357
n2.0
o2
o2
o2
n-10.094249644040001
o5
v0
n3.0
o5
v1
n1.1400000000000001
o44
o16
o5
v0
n2.0
o2
o2
o2
n-1.491464111476
o5
v0
n3.0
o5
v1
n0.06000000000000005
o44
o0
o2
n-1.08
o5
o0
v0
n-0.546
n2.0
o2
n-0.95
o5
o0
v1
n-1.03
n2.0
o2
o2
o2
n-0.003132751978692003
o5
v0
n7.0
o5
v1
n-0.958
o44
o2
n-1.0
v0
o2
o2
o2
n-5.02381279296
o5
v0
n2.0
o5
v1
n0.08000000000000007
o44
o16
o5
v0
n2.0
o2
o2
o2
n-0.10310133240000001
o5
v0
n2.0
o5
v1
n-1.45
o44
o0
o2
n-0.47
o5
o0
v0
n-0.68
n2.0
o2
n-0.1
o5
o0
v1
n-1.02
n2.0
o2
o2
o2
n-0.42348139199999996
v0
o5
v1
n-1.1
o44
o0
o2
n-1.043
o5
o0
v0
n-0.725
n2.0
o2
n-0.86
o5
o0
v1
n-1.357
n2.0
o2
o2
o2
n-7.557996248879999
v0
o5
v1
n0.3799999999999999
o44
o16
o5
v0
n2.0
o2
o2
o2
n-0.11901864100000002
o5
v0
n2.0
o5
v1
n-1.38
o44
o2
n-1.0
v0
o2
o2
o2
o2
n4.234813920000001
v0
o5
v1
n-0.09999999999999998
o0
o2
n-1.72
v1
n2.33404
o44
o0
o2
n-1.043
o5
o0
v0
n-0.725
n2.0
o2
n-0.86
o5
o0
v1
n-1.357
n2.0
o2
o2
o2
o2
n2.67337906774
o5
v0
n3.0
o5
v1
n1.06
o0
v1
n-1.03
o44
o0
o2
n-1.08
o5
o0
v0
n-0.546
n2.0
o2
n-0.95
o5
o0
v1
n-1.03
n2.0
o2
o2
o2
o2
n2.9209217655
o5
v0
n2.0
o5
v1
n-0.31000000000000005
o0
v1
n-0.8
o44
o0
o2
n-1.085
o5
o0
v0
n-0.495
n2.0
o2
n-1.85
o5
o0
v1
n-0.8
n2.0
o2
o2
o2
o2
n1464.55703040276
v0
o5
v1
n-0.14
o0
v1
n-1.097
o44
o0
o2
n-20.0
o5
o0
v0
n-0.94
n2.0
o2
n-1099.0
o5
o0
v1
n-1.097
n2.0
o2
o2
o2
o2
n0.22911407200000003
o5
v0
n2.0
o5
v1
n-0.44999999999999996
o0
o2
n-0.2
v1
n0.20400000000000001
o44
o0
o2
n-0.47
o5
o0
v0
n-0.68
n2.0
o2
n-0.1
o5
o0
v1
n-1.02
n2.0
o2
o2
o2
o2
n-0.789438315
o5
v0
n2.0
o5
v1
n-0.31000000000000005
o0
o2
n-3.7
v1
n2.9600000000000004
o44
o0
o2
n-1.085
o5
o0
v0
n-0.495
n2.0
o2
n-1.85
o5
o0
v1
n-0.8
n2.0
o2
o2
o2
o2
n-0.66631348062
v0
o5
v1
n-0.14
o0
o2
n-2198.0
v1
n2411.206
o44
o0
o2
n-20.0
o5
o0
v0
n-0.94
n2.0
o2
n-1099.0
o5
o0
v1
n-1.097
n2.0
o2
o2
o2
o2
n-0.04582281440000001
o5
v0
n2.0
o5
v1
n-0.44999999999999996
o0
v1
n-1.02
o44
o0
o2
n-0.47
o5
o0
v0
n-0.68
n2.0
o2
n-0.1
o5
o0
v1
n-1.02
n2.0
o2
o2
o2
o2
n-7.2838799424000005
v0
o5
v1
n-0.09999999999999998
o0
v1
n-1.357
o44
o0
o2
n-1.043
o5
o0
v0
n-0.725
n2.0
o2
n-0.86
o5
o0
v1
n-1.357
n2.0
o2
o2
o2
o2
n-1.4070416146
o5
v0
n3.0
o5
v1
n1.06
o0
o2
n-1.9
v1
n1.9569999999999999
o44
o0
o2
n-1.08
o5
o0
v0
n-0.546
n2.0
o2
n-0.95
o5
o0
v1
n-1.03
n2.0
o2
o2
o2
o2
o2
n1.297756829
o5
v0
n3.0
o5
v1
n2.06
o0
v1
n-1.03
o0
o2
n-1.9
v1
n1.9569999999999999
o44
o0
o2
n-1.08
o5
o0
v0
n-0.546
n2.0
o2
n-0.95
o5
o0
v1
n-1.03
n2.0
o2
o2
o2
o2
o2
n4.2332199500000005
o5
v0
n2.0
o5
v1
n0.69
o0
v1
n-0.8
o0
o2
n-3.7
v1
n2.9600000000000004
o44
o0
o2
n-1.085
o5
o0
v0
n-0.495
n2.0
o2
n-1.85
o5
o0
v1
n-0.8
n2.0
o2
o2
o2
o2
o2
n1702.973291166
v0
o5
v1
n0.86
o0
v1
n-1.097
o0
o2
n-2198.0
v1
n2411.206
o44
o0
o2
n-20.0
o5
o0
v0
n-0.94
n2.0
o2
n-1099.0
o5
o0
v1
n-1.097
n2.0
o2
o2
o2
o2
o2
n-0.083314208
o5
v0
n2.0
o5
v1
n0.55
o0
v1
n-1.02
o0
o2
n-0.2
v1
n0.20400000000000001
o44
o0
o2
n-0.47
o5
o0
v0
n-0.68
n2.0
o2
n-0.1
o5
o0
v1
n-1.02
n2.0
o2
o2
o2
o2
o2
n-8.093199936000001
v0
o5
v1
n0.9
o0
v1
n-1.357
o0
o2
n-1.72
v1
n2.33404
o44
o0
o2
n-1.043
o5
o0
v0
n-0.725
n2.0
o2
n-0.86
o5
o0
v1
n-1.357
n2.0
O10 0
o54
35
o2
n1.6626508329999998
o5
v1
n-0.63
o2
n0.1626973
o5
v0
n3.0
o2
n-4.3315122024
o5
v1
n-0.28200000000000003
o2
o2
n4.234813920000001
o5
v1
n-0.09999999999999998
o44
o0
o2
n-1.043
o5
o0
v0
n-0.725
n2.0
o2
n-0.86
o5
o0
v1
n-1.357
n2.0
o2
o2
n1.1679372081
o5
v1
n-0.41000000000000003
o5
v0
n2.0
o2
o2
n-5.476808876
o5
v1
n1.38
o44
o16
o5
v0
n2.0
o2
o2
n-0.66631348062
o5
v1
n-0.14
o44
o0
o2
n-20.0
o5
o0
v0
n-0.94
n2.0
o2
n-1099.0
o5
o0
v1
n-1.097
n2.0
o2
o2
n-1.7130985680000002
v0
o5
v1
n-0.20999999999999996
o2
o2
o2
n0.074589332826
o5
v1
n0.04200000000000004
o5
v0
n7.0
o44
o2
n-1.0
v0
o2
o2
o2
n10.953617752
o5
v1
n1.38
o5
v0
n2.0
o44
o16
o5
v0
n2.0
o2
o2
o2
n9.303357024
o5
v1
n1.08
o5
v0
n3.0
o44
o16
o5
v0
n2.0
o2
o2
o2
n9.433878172
o5
v1
n2.14
o5
v0
n4.0
o44
o16
o5
v0
n2.0
o2
o2
o2
n0.6264139000000001
v0
o5
v1
n-0.38
o44
o2
n-1.0
v0
o2
o2
o2
n1702.973291166
o5
v1
n0.86
o0
v1
n-1.097
o44
o0
o2
n-20.0
o5
o0
v0
n-0.94
n2.0
o2
n-1099.0
o5
o0
v1
n-1.097
n2.0
o2
o2
o2
n0.45822814400000006
v0
o5
v1
n-0.44999999999999996
o44
o0
o2
n-0.47
o5
o0
v0
n-0.68
n2.0
o2
n-0.1
o5
o0
v1
n-1.02
n2.0
o2
o2
o2
n-1.57887663
v0
o5
v1
n-0.31000000000000005
o44
o0
o2
n-1.085
o5
o0
v0
n-0.495
n2.0
o2
n-1.85
o5
o0
v1
n-0.8
n2.0
o2
o2
o2
n-9.303357024
v0
o5
v1
n1.08
o44
o16
o5
v0
n2.0
o2
o2
o2
n-8.093199936000001
o5
v1
n0.9
o0
v1
n-1.357
o44
o0
o2
n-1.043
o5
o0
v0
n-0.725
n2.0
o2
n-0.86
o5
o0
v1
n-1.357
n2.0
o2
o2
o2
n-4.2211248438
o5
v1
n1.06
o5
v0
n2.0
o44
o0
o2
n-1.08
o5
o0
v0
n-0.546
n2.0
o2
n-0.95
o5
o0
v1
n-1.03
n2.0
o2
o2
o2
n-0.522125329782
o5
v1
n0.04200000000000004
o5
v0
n6.0
o44
o2
n-1.0
v0
o2
o2
o2
n-0.31320695000000004
o5
v1
n-0.38
o5
v0
n2.0
o44
o2
n-1.0
v0
o2
o2
o2
n-14.150817257999998
o5
v1
n2.14
o5
v0
n2.0
o44
o16
o5
v0
n2.0
o2
o2
o2
o2
n4.234813920000001
v0
o5
v1
n-0.09999999999999998
o0
o2
n-2.086
v0
n1.5123499999999999
o44
o0
o2
n-1.043
o5
o0
v0
n-0.725
n2.0
o2
n-0.86
o5
o0
v1
n-1.357
n2.0
o2
o2
o2
o2
n8.466439900000001
v0
o5
v1
n0.69
o0
v1
n-0.8
o44
o0
o2
n-1.085
o5
o0
v0
n-0.495
n2.0
o2
n-1.85
o5
o0
v1
n-0.8
n2.0
o2
o2
o2
o2
n3.8932704869999997
o5
v1
n2.06
o5
v0
n2.0
o0
v1
n-1.03
o44
o0
o2
n-1.08
o5
o0
v0
n-0.546
n2.0
o2
n-0.95
o5
o0
v1
n-1.03
n2.0
o2
o2
o2
o2
n0.22911407200000003
o5
v1
n-0.44999999999999996
o5
v0
n2.0
o0
o2
n-0.94
v0
n0.6392
o44
o0
o2
n-0.47
o5
o0
v0
n-0.68
n2.0
o2
n-0.1
o5
o0
v1
n-1.02
n2.0
o2
o2
o2
o2
n-0.166628416
v0
o5
v1
n0.55
o0
v1
n-1.02
o44
o0
o2
n-0.47
o5
o0
v0
n-0.68
n2.0
o2
n-0.1
o5
o0
v1
n-1.02
n2.0
o2
o2
o2
o2
n-0.789438315
o5
v1
n-0.31000000000000005
o5
v0
n2.0
o0
o2
n-2.17
v0
n1.07415
o44
o0
o2
n-1.085
o5
o0
v0
n-0.495
n2.0
o2
n-1.85
o5
o0
v1
n-0.8
n2.0
o2
o2
o2
o2
n-0.66631348062
v0
o5
v1
n-0.14
o0
o2
n-40.0
v0
n37.599999999999994
o44
o0
o2
n-20.0
o5
o0
v0
n-0.94
n2.0
o2
n-1099.0
o5
o0
v1
n-1.097
n2.0
o2
o2
o2
o2
n-1.4070416146
o5
v1
n1.06
o5
v0
n3.0
o0
o2
n-2.16
v0
n1.1793600000000002
o44
o0
o2
n-1.08
o5
o0
v0
n-0.546
n2.0
o2
n-0.95
o5
o0
v1
n-1.03
n2.0
o2
o2
o2
o2
o2
n1.297756829
o5
v1
n2.06
o5
v0
n3.0
o0
v1
n-1.03
o0
o2
n-2.16
v0
n1.1793600000000002
o44
o0
o2
n-1.08
o5
o0
v0
n-0.546
n2.0
o2
n-0.95
o5
o0
v1
n-1.03
n2.0
o2
o2
o2
o2
o2
n4.2332199500000005
o5
v1
n0.69
o5
v0
n2.0
o0
v1
n-0.8
o0
o2
n-2.17
v0
n1.07415
o44
o0
o2
n-1.085
o5
o0
v0
n-0.495
n2.0
o2
n-1.85
o5
o0
v1
n-0.8
n2.0
o2
o2
o2
o2
o2
n1702.973291166
v0
o5
v1
n0.86
o0
v1
n-1.097
o0
o2
n-40.0
v0
n37.599999999999994
o44
o0
o2
n-20.0
o5
o0
v0
n-0.94
n2.0
o2
n-1099.0
o5
o0
v1
n-1.097
n2.0
o2
o2
o2
o2
o2
n-0.083314208
o5
v1
n0.55
o5
v0
n2.0
o0
v1
n-1.02
o0
o2
n-0.94
v0
n0.6392
o44
o0
o2
n-0.47
o5
o0
v0
n-0.68
n2.0
o2
n-0.1
o5
o0
v1
n-1.02
n2.0
o2
o2
o2
o2
o2
n-8.093199936000001
v0
o5
v1
n0.9
o0
v1
n-1.357
o0
o2
n-2.086
v0
n1.5123499999999999
o44
o0
o2
n-1.043
o5
o0
v0
n-0.725
n2.0
o2
n-0.86
o5
o0
v1
n-1.357
n2.0
O11 0
o0
o54
5
o2
n3.326
o5
o0
o16
o3
n1
v1
n1
n0.42
o2
n3.889
o5
o0
o16
o3
n1
v1
n1
n1.46
o2
n-2.363
o5
o0
o16
o3
n1
v1
n1
n0.9
o2
n-2.709
o5
o0
o16
o3
n1
v1
n1
n2.15
o2
n1.325
o5
o0
o16
o3
n1
v1
n1
n3.15
n1.0
O12 0
o44
o2
v1
o54
6
o2
n-4.0084
o5
o0
o16
o3
n1
v1
n1
n0.441
o2
n-7.913
o5
o0
o16
o3
n1
v1
n1
n1.244
o2
n-79.392
o5
o0
o16
o3
n1
v1
n1
n5.88
o2
n-28.572
o5
o0
o16
o3
n1
v1
n1
n3.03
o2
n-211.86
o5
o0
o16
o3
n1
v1
n1
n12.7
o2
n-1800.0
o5
o0
o16
o3
n1
v1
n1
n32.0
O13 0
n0.0
x2
0 1.00000001
1 1.0
r
b
3
3
k1
0
G0 2
0 0
1 -29.80919654255515
G1 1
0 0
G2 1
0 0
G3 1
1 0
G4 1
1 0
G5 2
0 0
1 0
G6 2
0 0
1 0
G7 2
0 0
1 0
G8 2
0 0
1 0
G9 2
0 0
1 0
G10 2
0 0
1 0
G11 1
1 0
G12 1
1 0
